p cnf 31 28
-18 -16 -14 -12 -4 0
17 19 8 12 -20 0
-16 3 5 23 15 0
-23 19 -18 7 0
-23 -19 -18 -7 0
-16 7 -8 24 -18 0
17 11 -10 25 0
4 5 -25 -24 -22 -3 0
-6 3 -12 -25 0
9 26 -6 -4 0
-14 11 -26 15 0
2 27 -12 -1 0
17 -10 9 28 13 0
1 -28 5 0
-8 -14 -28 21 0
1 29 -2 0
3 -29 7 -8 -6 15 0
-14 -29 20 -10 11 13 0
-13 -12 -29 -25 -4 -19 14 0
-29 -12 22 9 -6 0
8 -4 30 0
4 -12 6 -5 -20 31 0
-24 17 -31 0
-16 -31 9 -7 -18 15 0
-30 19 0
-21 -4 0
-27 -21 -19 0
21 -26 -10 -8 13 0
